20
 1 120 6
 2 378 18
 3 88 4
 4 460 20
 5 264 11
 6 450 18
 7 260 10
 8 135 5
 9 392 14
 10 377 13
 11 450 15
 12 434 14
 13 544 17
 14 561 17
 15 136 4
 16 420 12
 17 540 15
 18 555 15
 19 532 14
 20 39 1
280